N = 13;
H = 6;
T = 2;

avail = array3d(1..N, 1..H, 1..T, [4, 2, 7, 1, 7, 7, 2, 7, 7, 7, 10, 10, 7, 10, 4, 1, 10, 7, 7, 8, 0, 10, 9, 2, 3, 0, 8, 6, 6, 8, 4, 9, 1, 3, 8, 6, 6, 10, 6, 9, 8, 9, 5, 8, 9, 10, 4, 10, 4, 10, 0, 8, 2, 1, 6, 1, 6, 2, 10, 3, 8, 7, 10, 6, 5, 5, 1, 5, 9, 9, 4, 9, 8, 2, 10, 8, 6, 5, 3, 10, 3, 8, 9, 3, 4, 6, 3, 5, 5, 0, 0, 2, 4, 9, 2, 7, 8, 2, 4, 5, 1, 10, 10, 5, 10, 10, 3, 0, 10, 4, 3, 1, 0, 5, 3, 9, 8, 4, 4, 3, 3, 3, 5, 8, 2, 9, 2, 5, 0, 9, 8, 10, 10, 7, 7, 10, 10, 6, 4, 0, 9, 8, 2, 5, 10, 10, 7, 2, 6, 7, 10, 7, 6, 9, 3, 2]);

r = array2d(1..H, 1..T, [4, 2, 1, 4, 3, 0, 7, 1, 3, 6, 5, 5]);
